15
1 0 2
2 0 5
2 1 1
3 0 3
3 1 1
3 2 4
4 0 4
4 1 2
4 2 3
4 3 1
5 0 4
5 1 2
5 2 4
5 3 2
5 4 2
6 0 2
6 1 4
6 2 4
6 3 4
6 4 1
6 5 5
7 0 3
7 1 1
7 2 3
7 3 4
7 4 3
7 5 3
7 6 1
8 0 4
8 1 1
8 2 5
8 3 5
8 4 4
8 5 4
8 6 4
8 7 3
9 0 3
9 1 5
9 2 1
9 3 1
9 4 5
9 5 4
9 6 1
9 7 2
9 8 5
10 0 4
10 1 3
10 2 3
10 3 5
10 4 4
10 5 4
10 6 5
10 7 3
10 8 4
10 9 1
11 0 2
11 1 2
11 2 3
11 3 1
11 4 1
11 5 2
11 6 2
11 7 1
11 8 4
11 9 3
11 10 5
12 0 3
12 1 4
12 2 1
12 3 2
12 4 3
12 5 1
12 6 4
12 7 5
12 8 5
12 9 2
12 10 5
12 11 3
13 0 4
13 1 1
13 2 4
13 3 3
13 4 3
13 5 3
13 6 5
13 7 5
13 8 2
13 9 4
13 10 1
13 11 5
13 12 4
14 0 3
14 1 2
14 2 5
14 3 4
14 4 1
14 5 3
14 6 4
14 7 3
14 8 3
14 9 5
14 10 2
14 11 2
14 12 5
14 13 5
